DIMENSION :9
NODE_COORD_SECTION
1 -15.348202179329078 84.65823721240506
2 -71.25188951073082 53.24247142676958
3 -8.106401669879943 -73.10283562755359
4 87.79665904853982 -56.47502400496647
5 -39.01477026332736 36.773093627373896
6 30.564183594193906 42.87381115481185
7 -76.9121602685348 -6.996640488222681
8 55.33426444019892 87.65162904841759
9 19.82508045365516 -18.50007750684965
EOF
